27      4       
10      10      10      10      
0       0       0       0       0       7       2       3       4       5       7       10      13      
7       3       4       1       3       5       6       8       11      21      26      
2       3       6       6       4       5       8       11      14      15      26      
10      4       7       5       7       4       8       15      21      26      
9       9       10      10      7       3       9       20      26      
4       7       5       9       8       2       9       14      
8       4       9       6       7       2       8       15      
10      9       5       10      6       3       12      18      20      
1       5       9       6       10      3       12      15      18      
6       6       9       6       10      6       16      18      19      20      21      25      
4       5       8       7       10      2       12      18      
6       10      9       8       10      5       16      17      19      24      25      
2       5       10      10      6       3       15      18      25      
4       10      10      9       7       2       16      24      
9       10      6       7       5       2       17      22      
7       10      10      6       7       2       22      23      
1       4       4       10      10      1       23      
1       8       7       10      8       1       24      
7       8       4       4       9       1       22      
10      9       10      10      4       1       23      
5       10      8       10      7       1       22      
10      10      7       8       10      1       27      
1       8       10      6       8       1       27      
3       10      6       10      10      1       27      
8       10      5       6       4       1       27      
1       10      9       7       10      1       27      
0       0       0       0       0       0       
